n = 3;

m_names = ["A", "B", "C"];
w_names = ["X","Y", "Z"];

m_ranks = array2d(1..n ,1..n,
  [ 2, 1, 3,
    3, 2, 1,
    1, 3, 2]);
    
w_ranks = array2d(1..n, 1..n,
  [2, 1, 3,
   3, 2, 1,
   1, 3, 2,]);